21° run output:
{
    "Function": "kroA300.tsp",
    "Problem dimension": [
        199,
        46,
        1,
        180,
        215,
        240,
        134,
        182,
        233,
        133,
        288,
        209,
        34,
        167,
        208,
        147,
        198,
        15,
        8,
        117,
        17,
        118,
        296,
        48,
        286,
        50,
        169,
        35,
        71,
        290,
        49,
        293,
        257,
        201,
        93,
        172,
        263,
        123,
        230,
        289,
        222,
        175,
        132,
        249,
        236,
        216,
        250,
        96,
        44,
        279,
        66,
        264,
        269,
        173,
        110,
        259,
        121,
        187,
        107,
        159,
        185,
        24,
        55,
        195,
        229,
        153,
        213,
        163,
        266,
        76,
        157,
        298,
        80,
        273,
        243,
        103,
        258,
        193,
        152,
        0,
        7,
        184,
        38,
        227,
        57,
        108,
        106,
        168,
        204,
        10,
        144,
        244,
        220,
        27,
        113,
        299,
        4,
        136,
        33,
        102,
        140,
        87,
        255,
        82,
        268,
        94,
        61,
        79,
        9,
        131,
        114,
        116,
        31,
        60,
        158,
        13,
        29,
        14,
        16,
        21,
        217,
        41,
        278,
        261,
        22,
        253,
        19,
        126,
        69,
        143,
        56,
        196,
        11,
        252,
        165,
        68,
        178,
        62,
        207,
        83,
        287,
        271,
        226,
        12,
        256,
        122,
        179,
        225,
        40,
        150,
        254,
        43,
        212,
        23,
        137,
        292,
        206,
        205,
        148,
        81,
        262,
        120,
        190,
        294,
        281,
        92,
        171,
        36,
        45,
        26,
        53,
        181,
        194,
        20,
        88,
        251,
        237,
        246,
        100,
        67,
        245,
        127,
        105,
        3,
        291,
        202,
        39,
        99,
        272,
        73,
        130,
        221,
        166,
        188,
        260,
        234,
        86,
        51,
        95,
        275,
        77,
        115,
        65,
        47,
        18,
        25,
        84,
        192,
        145,
        151,
        42,
        75,
        232,
        161,
        64,
        78,
        239,
        156,
        74,
        125,
        200,
        241,
        135,
        197,
        176,
        285,
        91,
        191,
        248,
        112,
        277,
        265,
        228,
        104,
        138,
        183,
        284,
        247,
        129,
        170,
        238,
        59,
        32,
        146,
        189,
        162,
        282,
        160,
        274,
        54,
        177,
        85,
        98,
        295,
        6,
        124,
        223,
        142,
        89,
        297,
        210,
        154,
        5,
        119,
        267,
        128,
        231,
        218,
        111,
        186,
        2,
        280,
        164,
        109,
        242,
        30,
        270,
        97,
        219,
        90,
        224,
        63,
        276,
        235,
        214,
        101,
        139,
        58,
        72,
        174,
        28,
        52,
        149,
        211,
        155,
        283,
        203,
        141,
        70,
        37
    ],
    "Global Optimum": 0,
    "Algorithm": "Genetic algorithm",
    "Parameters": {
        "population": 30,
        "offspring": 30,
        "mutation probability": 0.0033333333333333335,
        "crossover probability": 0.9
    },
    "Fitness": 255978,
    "Solution": [
        199,
        46,
        1,
        180,
        215,
        240,
        134,
        182,
        233,
        133,
        288,
        209,
        34,
        167,
        208,
        147,
        198,
        15,
        8,
        117,
        17,
        118,
        296,
        48,
        286,
        50,
        169,
        35,
        71,
        290,
        49,
        293,
        257,
        201,
        93,
        172,
        263,
        123,
        230,
        289,
        222,
        175,
        132,
        249,
        236,
        216,
        250,
        96,
        44,
        279,
        66,
        264,
        269,
        173,
        110,
        259,
        121,
        187,
        107,
        159,
        185,
        24,
        55,
        195,
        229,
        153,
        213,
        163,
        266,
        76,
        157,
        298,
        80,
        273,
        243,
        103,
        258,
        193,
        152,
        0,
        7,
        184,
        38,
        227,
        57,
        108,
        106,
        168,
        204,
        10,
        144,
        244,
        220,
        27,
        113,
        299,
        4,
        136,
        33,
        102,
        140,
        87,
        255,
        82,
        268,
        94,
        61,
        79,
        9,
        131,
        114,
        116,
        31,
        60,
        158,
        13,
        29,
        14,
        16,
        21,
        217,
        41,
        278,
        261,
        22,
        253,
        19,
        126,
        69,
        143,
        56,
        196,
        11,
        252,
        165,
        68,
        178,
        62,
        207,
        83,
        287,
        271,
        226,
        12,
        256,
        122,
        179,
        225,
        40,
        150,
        254,
        43,
        212,
        23,
        137,
        292,
        206,
        205,
        148,
        81,
        262,
        120,
        190,
        294,
        281,
        92,
        171,
        36,
        45,
        26,
        53,
        181,
        194,
        20,
        88,
        251,
        237,
        246,
        100,
        67,
        245,
        127,
        105,
        3,
        291,
        202,
        39,
        99,
        272,
        73,
        130,
        221,
        166,
        188,
        260,
        234,
        86,
        51,
        95,
        275,
        77,
        115,
        65,
        47,
        18,
        25,
        84,
        192,
        145,
        151,
        42,
        75,
        232,
        161,
        64,
        78,
        239,
        156,
        74,
        125,
        200,
        241,
        135,
        197,
        176,
        285,
        91,
        191,
        248,
        112,
        277,
        265,
        228,
        104,
        138,
        183,
        284,
        247,
        129,
        170,
        238,
        59,
        32,
        146,
        189,
        162,
        282,
        160,
        274,
        54,
        177,
        85,
        98,
        295,
        6,
        124,
        223,
        142,
        89,
        297,
        210,
        154,
        5,
        119,
        267,
        128,
        231,
        218,
        111,
        186,
        2,
        280,
        164,
        109,
        242,
        30,
        270,
        97,
        219,
        90,
        224,
        63,
        276,
        235,
        214,
        101,
        139,
        58,
        72,
        174,
        28,
        52,
        149,
        211,
        155,
        283,
        203,
        141,
        70,
        37
    ],
    "Nb of functions evaluations": 400020,
    "Computational time in seconds": 757.4305086135864,
    "Stopping criterion in evaluations": 400000
}